NAME          DCAP_3_3_2_500_SS272
ROWS
 N  OBJ
 L  CON1
 L  CON2
 L  CON3
 L  CON4
 L  CON5
 L  CON6
 L  CON7
 L  CON8
 L  CON9
 L  CON10
 L  CON11
 L  CON12
 E  CON13
 E  CON14
 E  CON15
 E  CON16
 E  CON17
 E  CON18
COLUMNS
    x[1,1]    OBJ       6.180167      CON1      1.000000    
    x[1,1]    CON7      -1.000000     CON8      -1.000000   
    x[1,2]    OBJ       5.039546      CON2      1.000000    
    x[1,2]    CON8      -1.000000   
    x[2,1]    OBJ       6.732585      CON3      1.000000    
    x[2,1]    CON9      -1.000000     CON10     -1.000000   
    x[2,2]    OBJ       7.443064      CON4      1.000000    
    x[2,2]    CON10     -1.000000   
    x[3,1]    OBJ       6.563535      CON5      1.000000    
    x[3,1]    CON11     -1.000000     CON12     -1.000000   
    x[3,2]    OBJ       6.054841      CON6      1.000000    
    x[3,2]    CON12     -1.000000   
    MARKER    'MARKER'                'INTORG'
    u[1,1]    OBJ       48.076654     CON1      -1.000000   
    u[1,2]    OBJ       49.466655     CON2      -1.000000   
    u[2,1]    OBJ       49.996186     CON3      -1.000000   
    u[2,2]    OBJ       32.230043     CON4      -1.000000   
    u[3,1]    OBJ       20.066487     CON5      -1.000000   
    u[3,2]    OBJ       27.484319     CON6      -1.000000   
    y[1,1,1]  OBJ       8.309385      CON7      1.451712    
    y[1,1,1]  CON13     1.000000    
    y[1,1,2]  OBJ       5.097311      CON8      0.626901    
    y[1,1,2]  CON14     1.000000    
    y[1,2,1]  OBJ       5.648232      CON7      1.362335    
    y[1,2,1]  CON15     1.000000    
    y[1,2,2]  OBJ       9.210411      CON8      1.139406    
    y[1,2,2]  CON16     1.000000    
    y[1,3,1]  OBJ       8.601984      CON7      1.086022    
    y[1,3,1]  CON17     1.000000    
    y[1,3,2]  OBJ       9.589932      CON8      0.570983    
    y[1,3,2]  CON18     1.000000    
    y[2,1,1]  OBJ       8.485240      CON9      1.451712    
    y[2,1,1]  CON13     1.000000    
    y[2,1,2]  OBJ       6.100224      CON10     0.626901    
    y[2,1,2]  CON14     1.000000    
    y[2,2,1]  OBJ       9.531473      CON9      1.362335    
    y[2,2,1]  CON15     1.000000    
    y[2,2,2]  OBJ       6.110247      CON10     1.139406    
    y[2,2,2]  CON16     1.000000    
    y[2,3,1]  OBJ       8.197164      CON9      1.086022    
    y[2,3,1]  CON17     1.000000    
    y[2,3,2]  OBJ       6.890169      CON10     0.570983    
    y[2,3,2]  CON18     1.000000    
    y[3,1,1]  OBJ       8.164751      CON11     1.451712    
    y[3,1,1]  CON13     1.000000    
    y[3,1,2]  OBJ       6.047665      CON12     0.626901    
    y[3,1,2]  CON14     1.000000    
    y[3,2,1]  OBJ       5.026915      CON11     1.362335    
    y[3,2,1]  CON15     1.000000    
    y[3,2,2]  OBJ       8.439894      CON12     1.139406    
    y[3,2,2]  CON16     1.000000    
    y[3,3,1]  OBJ       6.410241      CON11     1.086022    
    y[3,3,1]  CON17     1.000000    
    y[3,3,2]  OBJ       9.565731      CON12     0.570983    
    y[3,3,2]  CON18     1.000000    
    z[1,1]    OBJ       636.837079    CON13     1.000000    
    z[1,2]    OBJ       795.113478    CON14     1.000000    
    z[2,1]    OBJ       625.637685    CON15     1.000000    
    z[2,2]    OBJ       527.061226    CON16     1.000000    
    z[3,1]    OBJ       634.084134    CON17     1.000000    
    z[3,2]    OBJ       622.030649    CON18     1.000000    
    MARKER    'MARKER'                 'INTEND'
RHS
    RHS       CON1      -0.000000     CON2      -0.000000   
    RHS       CON3      -0.000000     CON4      -0.000000   
    RHS       CON5      -0.000000     CON6      -0.000000   
    RHS       CON7      -0.000000     CON8      -0.000000   
    RHS       CON9      -0.000000     CON10     -0.000000   
    RHS       CON11     -0.000000     CON12     -0.000000   
    RHS       CON13     1.000000      CON14     1.000000    
    RHS       CON15     1.000000      CON16     1.000000    
    RHS       CON17     1.000000      CON18     1.000000    
BOUNDS
 BV BOUND     u[1,1]  
 BV BOUND     u[1,2]  
 BV BOUND     u[2,1]  
 BV BOUND     u[2,2]  
 BV BOUND     u[3,1]  
 BV BOUND     u[3,2]  
 BV BOUND     y[1,1,1]
 BV BOUND     y[1,1,2]
 BV BOUND     y[1,2,1]
 BV BOUND     y[1,2,2]
 BV BOUND     y[1,3,1]
 BV BOUND     y[1,3,2]
 BV BOUND     y[2,1,1]
 BV BOUND     y[2,1,2]
 BV BOUND     y[2,2,1]
 BV BOUND     y[2,2,2]
 BV BOUND     y[2,3,1]
 BV BOUND     y[2,3,2]
 BV BOUND     y[3,1,1]
 BV BOUND     y[3,1,2]
 BV BOUND     y[3,2,1]
 BV BOUND     y[3,2,2]
 BV BOUND     y[3,3,1]
 BV BOUND     y[3,3,2]
 BV BOUND     z[1,1]  
 BV BOUND     z[1,2]  
 BV BOUND     z[2,1]  
 BV BOUND     z[2,2]  
 BV BOUND     z[3,1]  
 BV BOUND     z[3,2]  
ENDATA
